/*********************************************
 * OPL 12.6.0.0 Data
 * Author: Adrian Rodriguez Bazaga, Pau Rodriguez Esmerats
 * Creation Date: 09/12/2017 at 00:42:48
 *********************************************/

maxConsec=8;
maxPresence=8;
maxHours=6;
minHours=1;
hours=16;
demand= [8 11 11 11 10 10 9 8 3 0 0 0 0 0 0 0  ];
nNurses=13;
